/*********************************************
 * OPL 12.6.0.0 Data
 * Author: Adrian Rodriguez Bazaga, Pau Rodriguez Esmerats
 * Creation Date: 06/12/2017 at 21:23:57
 *********************************************/

nNurses=133;
maxConsec=2;
maxPresence=7;
maxHours=5;
minHours=1;
demand= [30 23 39 46 23 39 46 23 25 18 3 2 4 4 5 4 4 2 2 2 22 38 17 36  ];
